Route #1: 25 4 18 26 47 16 43
Route #2: 2 34 40 7 44
Route #3: 6 30 20 36 33 9 12 37 27
Route #4: 11 5 24 49 48
Route #5: 1 28 29 19 32
Route #6: 31 14 46 38 13 3
Route #7: 22 23 41 45 39 35
Route #8: 15 8 17 42 21 10
Cost 1317
Time 0.118666
